60
1 0 3
2 0 5
2 1 9
3 0 2
3 1 7
3 2 8
4 2 4
5 0 2
5 1 3
5 2 3
5 3 4
5 4 10
6 0 5
6 1 10
6 3 8
6 4 10
6 5 1
7 1 5
7 2 8
7 3 9
7 4 4
7 5 1
7 6 4
8 1 1
8 2 6
8 3 2
8 4 5
8 5 10
8 6 8
8 7 10
9 0 4
9 2 8
9 4 7
9 5 3
9 6 1
9 7 6
9 8 6
10 0 1
10 1 6
10 3 5
10 7 2
10 8 5
10 9 10
11 0 7
11 1 4
11 2 6
11 3 8
11 4 8
11 6 10
11 7 2
11 9 8
11 10 9
12 0 8
12 1 7
12 2 7
12 3 3
12 4 5
12 5 2
12 7 9
12 9 7
12 10 8
12 11 10
13 0 1
13 2 6
13 4 1
13 5 4
13 6 3
13 7 10
13 9 3
13 12 4
14 0 3
14 1 3
14 2 4
14 4 4
14 5 7
14 6 1
14 7 3
14 8 9
14 9 5
14 10 9
14 11 5
14 12 7
14 13 3
15 2 8
15 5 8
15 6 1
15 7 10
15 8 8
15 11 5
15 12 5
15 13 5
15 14 9
16 1 9
16 2 3
16 3 10
16 5 9
16 6 2
16 8 3
16 9 4
16 10 7
16 13 2
17 0 3
17 1 4
17 2 9
17 3 10
17 6 5
17 7 1
17 8 7
17 9 8
17 10 4
17 11 6
17 13 4
17 14 7
18 0 10
18 1 3
18 2 1
18 3 4
18 4 2
18 6 10
18 7 1
18 8 3
18 9 5
18 10 5
18 11 9
18 12 6
18 13 1
18 14 9
18 15 8
18 16 1
18 17 4
19 1 4
19 2 4
19 3 4
19 5 9
19 7 10
19 8 9
19 10 2
19 11 1
19 12 9
19 13 2
19 15 5
19 16 10
19 18 5
20 0 4
20 2 5
20 5 3
20 6 8
20 7 7
20 8 10
20 9 1
20 10 6
20 11 2
20 13 1
20 14 8
20 15 5
20 17 1
20 18 2
20 19 1
21 0 4
21 1 2
21 3 9
21 4 6
21 5 4
21 6 4
21 7 4
21 8 9
21 9 1
21 10 6
21 12 1
21 13 3
21 14 3
21 15 5
21 17 10
21 19 4
22 1 4
22 2 10
22 4 10
22 7 3
22 9 4
22 10 1
22 11 8
22 12 2
22 13 4
22 16 3
22 17 10
22 18 9
22 21 2
23 0 10
23 1 4
23 2 9
23 3 10
23 4 8
23 5 4
23 6 10
23 7 7
23 9 5
23 10 10
23 12 10
23 13 3
23 16 7
23 18 5
23 19 9
23 20 2
23 21 10
23 22 9
24 0 4
24 1 8
24 3 5
24 4 6
24 6 10
24 8 7
24 9 3
24 10 3
24 11 10
24 12 1
24 15 10
24 16 6
24 17 8
24 18 4
24 19 10
24 22 6
24 23 6
25 0 2
25 1 3
25 4 3
25 6 4
25 8 4
25 9 7
25 11 1
25 12 2
25 13 8
25 14 10
25 15 4
25 18 4
25 20 9
25 21 3
25 22 6
25 23 6
25 24 8
26 1 8
26 3 4
26 5 9
26 7 3
26 8 9
26 10 9
26 12 6
26 13 4
26 14 9
26 15 8
26 16 8
26 17 8
26 18 7
26 19 5
26 20 8
26 21 6
26 22 10
27 0 5
27 1 8
27 5 8
27 7 9
27 8 10
27 10 3
27 11 2
27 12 8
27 13 9
27 14 4
27 15 9
27 16 6
27 17 3
27 21 2
27 22 9
27 25 1
28 0 8
28 2 4
28 4 2
28 6 1
28 7 10
28 8 2
28 9 7
28 10 8
28 11 6
28 12 5
28 13 9
28 14 6
28 15 6
28 17 7
28 18 2
28 19 7
28 21 8
28 22 9
28 24 2
28 25 5
28 26 3
28 27 8
29 1 7
29 2 7
29 3 6
29 4 10
29 5 4
29 7 5
29 8 9
29 10 5
29 11 7
29 14 4
29 15 1
29 16 9
29 19 2
29 20 9
29 21 9
29 22 9
29 23 10
29 24 7
29 25 5
29 26 7
29 27 1
29 28 1
30 0 1
30 1 1
30 2 5
30 4 6
30 5 4
30 7 5
30 8 6
30 9 1
30 10 5
30 14 8
30 15 3
30 16 10
30 17 7
30 18 6
30 19 6
30 21 8
30 22 5
30 23 10
30 25 8
30 26 10
30 27 8
30 28 1
31 2 8
31 3 10
31 4 4
31 5 6
31 6 3
31 7 8
31 9 1
31 10 3
31 12 3
31 13 5
31 14 7
31 15 2
31 16 5
31 17 6
31 18 8
31 19 7
31 20 7
31 21 9
31 22 6
31 24 8
31 25 9
31 27 5
31 28 4
31 29 3
31 30 7
32 0 5
32 1 8
32 2 4
32 3 8
32 4 3
32 5 1
32 6 10
32 8 9
32 9 10
32 11 10
32 12 10
32 13 3
32 14 7
32 15 1
32 16 4
32 17 6
32 18 6
32 19 4
32 20 4
32 21 5
32 22 9
32 24 2
32 25 4
32 26 3
32 27 10
32 28 3
32 29 9
32 30 7
33 0 2
33 1 4
33 2 6
33 3 6
33 4 5
33 5 8
33 6 1
33 7 3
33 9 8
33 12 10
33 13 8
33 15 5
33 17 6
33 18 2
33 19 7
33 20 7
33 22 4
33 23 9
33 24 8
33 26 4
33 29 2
33 31 9
34 2 6
34 4 3
34 6 6
34 7 3
34 8 2
34 9 2
34 11 7
34 12 4
34 13 3
34 14 6
34 15 4
34 17 3
34 19 10
34 20 5
34 22 3
34 23 6
34 24 5
34 29 4
34 30 3
34 31 3
34 33 2
35 1 6
35 2 6
35 4 8
35 6 7
35 8 4
35 9 2
35 10 2
35 11 10
35 13 2
35 17 4
35 18 4
35 22 6
35 23 7
35 24 8
35 26 1
35 27 4
35 28 5
35 29 9
35 30 6
35 31 7
36 0 1
36 1 7
36 3 5
36 4 10
36 5 9
36 6 8
36 7 8
36 10 1
36 11 8
36 12 6
36 13 10
36 14 7
36 15 2
36 16 6
36 17 2
36 18 10
36 19 10
36 20 5
36 22 8
36 23 2
36 24 5
36 25 2
36 27 5
36 28 6
36 30 2
36 31 3
36 32 8
36 33 3
36 34 9
37 0 4
37 1 2
37 2 1
37 5 3
37 6 3
37 7 9
37 8 4
37 9 5
37 12 2
37 13 1
37 14 9
37 15 1
37 17 5
37 18 7
37 20 9
37 21 7
37 22 9
37 23 1
37 24 8
37 26 2
37 27 7
37 28 1
37 30 1
37 31 10
37 32 7
37 33 2
38 0 4
38 1 2
38 2 3
38 3 1
38 5 9
38 7 9
38 9 10
38 10 3
38 11 1
38 13 1
38 14 9
38 15 6
38 17 9
38 19 5
38 20 4
38 21 1
38 25 2
38 29 10
38 30 6
38 31 4
38 33 1
38 34 5
38 35 4
38 36 9
38 37 3
39 0 8
39 1 3
39 3 6
39 4 4
39 5 9
39 6 1
39 7 2
39 8 9
39 9 1
39 10 5
39 11 3
39 12 2
39 13 1
39 14 10
39 16 6
39 18 9
39 19 7
39 20 4
39 22 10
39 23 1
39 25 10
39 27 10
39 28 10
39 29 9
39 30 4
39 31 1
39 32 10
39 33 8
39 35 1
39 36 3
39 37 2
39 38 5
40 0 5
40 2 3
40 3 1
40 4 9
40 5 4
40 6 4
40 9 10
40 10 5
40 11 7
40 13 3
40 15 6
40 16 9
40 17 7
40 18 9
40 20 10
40 21 8
40 22 1
40 23 1
40 24 7
40 25 5
40 26 1
40 27 4
40 28 8
40 30 1
40 32 10
40 33 9
40 34 7
40 35 10
40 36 6
40 38 2
40 39 7
41 0 8
41 2 10
41 3 2
41 5 8
41 6 4
41 8 5
41 11 9
41 12 10
41 13 6
41 16 2
41 17 4
41 18 9
41 19 1
41 20 8
41 21 2
41 22 8
41 24 3
41 25 5
41 26 3
41 27 3
41 28 8
41 31 2
41 33 8
41 34 2
41 35 9
41 36 5
41 38 4
41 39 3
42 1 2
42 2 4
42 4 6
42 5 1
42 7 4
42 8 10
42 10 10
42 11 10
42 12 3
42 13 1
42 15 7
42 20 2
42 22 7
42 23 3
42 25 5
42 26 10
42 27 10
42 29 8
42 30 7
42 31 8
42 32 4
42 33 6
42 34 10
42 35 2
42 36 6
42 39 9
42 41 7
43 0 1
43 1 4
43 3 6
43 9 1
43 10 10
43 12 1
43 14 8
43 15 10
43 16 1
43 18 10
43 19 6
43 22 8
43 23 1
43 24 3
43 25 1
43 26 3
43 28 9
43 29 2
43 30 2
43 31 6
43 32 2
43 33 10
43 34 6
43 37 9
43 38 8
43 39 4
43 40 9
43 41 9
44 0 2
44 1 2
44 2 7
44 3 5
44 4 9
44 5 4
44 7 7
44 10 2
44 11 2
44 15 7
44 16 2
44 17 10
44 18 9
44 19 4
44 20 4
44 21 10
44 23 5
44 27 2
44 29 1
44 30 4
44 31 1
44 32 2
44 33 2
44 34 2
44 35 5
44 36 3
44 37 6
44 38 8
44 39 6
44 41 10
44 42 8
45 0 9
45 1 9
45 3 7
45 5 7
45 7 2
45 8 1
45 10 8
45 11 2
45 13 6
45 14 4
45 16 4
45 17 1
45 19 7
45 21 2
45 23 3
45 24 8
45 25 6
45 27 7
45 28 8
45 29 1
45 30 2
45 31 10
45 32 4
45 33 9
45 35 9
45 36 10
45 38 5
45 39 9
45 40 9
45 41 9
45 44 4
46 0 1
46 2 6
46 5 1
46 6 6
46 7 8
46 8 7
46 9 6
46 10 1
46 11 3
46 12 9
46 13 5
46 14 9
46 15 8
46 16 5
46 17 5
46 21 2
46 22 1
46 23 1
46 24 10
46 25 1
46 26 6
46 27 9
46 29 9
46 30 2
46 31 10
46 32 10
46 33 3
46 34 6
46 35 6
46 36 4
46 37 7
46 41 5
46 42 6
46 44 2
46 45 3
47 0 7
47 1 3
47 2 5
47 3 8
47 4 5
47 5 6
47 7 3
47 9 8
47 12 5
47 13 6
47 14 1
47 15 1
47 16 6
47 18 1
47 20 1
47 21 8
47 22 10
47 24 3
47 25 4
47 26 8
47 27 5
47 28 1
47 29 2
47 30 10
47 31 3
47 32 1
47 33 8
47 34 6
47 35 3
47 38 3
47 39 9
47 40 2
47 44 5
47 45 10
47 46 6
48 0 6
48 1 6
48 2 9
48 3 8
48 4 8
48 5 5
48 7 2
48 8 2
48 10 3
48 11 6
48 12 4
48 13 7
48 15 7
48 16 3
48 17 9
48 18 7
48 19 2
48 22 6
48 23 3
48 24 10
48 27 6
48 28 2
48 31 1
48 32 4
48 34 3
48 35 3
48 37 3
48 39 9
48 40 1
48 43 6
48 45 1
48 47 1
49 0 10
49 3 9
49 4 9
49 5 1
49 9 3
49 10 9
49 12 10
49 15 10
49 18 2
49 20 6
49 23 4
49 24 2
49 26 10
49 29 6
49 30 4
49 32 10
49 33 4
49 36 1
49 41 9
49 43 8
49 44 2
49 45 10
49 46 2
49 47 2
50 0 3
50 1 7
50 2 5
50 3 1
50 4 4
50 5 9
50 6 2
50 8 1
50 9 1
50 10 9
50 13 10
50 14 3
50 17 5
50 18 10
50 20 10
50 21 5
50 24 2
50 25 10
50 27 2
50 28 4
50 29 7
50 30 3
50 32 4
50 33 6
50 35 7
50 37 7
50 38 2
50 39 1
50 40 6
50 42 1
50 43 1
50 44 10
50 45 8
50 46 9
50 49 6
51 0 4
51 1 1
51 2 8
51 6 8
51 8 5
51 9 6
51 11 5
51 12 4
51 13 2
51 16 9
51 18 10
51 20 2
51 21 7
51 22 1
51 24 1
51 25 2
51 28 3
51 31 7
51 32 9
51 33 9
51 34 9
51 37 7
51 38 3
51 39 7
51 40 6
51 41 8
51 42 4
51 43 9
51 45 10
51 48 9
51 49 6
52 0 4
52 1 10
52 2 2
52 4 9
52 5 2
52 6 1
52 7 3
52 9 5
52 11 10
52 12 3
52 14 7
52 15 9
52 17 1
52 19 5
52 20 3
52 22 5
52 23 8
52 24 9
52 26 7
52 29 4
52 31 9
52 32 1
52 33 6
52 34 10
52 35 1
52 36 9
52 38 9
52 40 5
52 41 5
52 42 10
52 43 2
52 45 4
52 47 3
52 48 3
52 49 3
52 50 2
53 0 10
53 1 10
53 2 9
53 3 8
53 4 6
53 5 3
53 6 8
53 8 6
53 9 1
53 10 1
53 11 2
53 12 9
53 13 6
53 16 5
53 17 10
53 18 9
53 19 1
53 20 1
53 22 7
53 24 7
53 25 6
53 26 3
53 27 3
53 35 9
53 36 3
53 37 6
53 38 1
53 40 8
53 42 10
53 43 9
53 44 1
53 45 6
53 46 3
53 47 4
53 48 10
53 49 8
53 50 7
53 51 10
54 1 1
54 2 6
54 3 1
54 5 1
54 7 8
54 8 4
54 9 8
54 10 7
54 12 2
54 13 9
54 14 10
54 15 1
54 17 1
54 18 5
54 19 8
54 20 9
54 21 7
54 23 3
54 24 1
54 26 6
54 27 5
54 28 6
54 30 5
54 32 1
54 33 1
54 35 7
54 36 4
54 37 10
54 38 6
54 39 5
54 41 3
54 43 5
54 45 4
54 47 8
54 48 10
54 51 6
54 52 7
54 53 8
55 0 1
55 1 4
55 2 5
55 3 10
55 4 3
55 5 4
55 7 2
55 10 5
55 11 10
55 12 5
55 14 7
55 16 9
55 17 1
55 18 2
55 19 1
55 20 9
55 21 9
55 22 10
55 26 2
55 28 7
55 30 8
55 31 6
55 32 6
55 34 4
55 35 8
55 37 2
55 38 5
55 39 4
55 42 3
55 43 1
55 44 8
55 46 7
55 48 9
55 49 5
55 51 3
55 52 10
55 53 2
55 54 2
56 0 4
56 1 3
56 2 8
56 3 5
56 5 2
56 8 7
56 9 3
56 10 4
56 11 6
56 13 9
56 14 10
56 15 10
56 16 7
56 17 9
56 18 1
56 20 8
56 22 8
56 23 5
56 24 4
56 26 1
56 27 1
56 30 5
56 32 6
56 33 9
56 34 2
56 35 6
56 36 4
56 37 1
56 38 5
56 40 2
56 41 10
56 42 6
56 43 10
56 44 10
56 45 2
56 46 7
56 48 9
56 49 6
56 50 6
56 51 9
56 52 1
56 53 8
56 54 1
57 0 6
57 1 2
57 2 4
57 4 3
57 5 5
57 7 1
57 8 7
57 9 1
57 10 3
57 11 1
57 12 4
57 14 7
57 16 10
57 18 9
57 19 3
57 20 5
57 21 6
57 22 2
57 23 4
57 25 2
57 27 9
57 28 1
57 31 2
57 34 9
57 35 2
57 36 9
57 37 2
57 38 4
57 40 3
57 41 1
57 42 7
57 44 10
57 49 6
57 51 3
57 52 2
57 53 6
57 54 10
57 56 6
58 0 2
58 1 6
58 3 5
58 4 2
58 5 8
58 7 8
58 8 8
58 9 4
58 10 5
58 12 8
58 13 10
58 16 8
58 17 2
58 18 10
58 19 3
58 21 10
58 22 8
58 23 2
58 26 1
58 27 3
58 28 5
58 29 4
58 30 4
58 31 10
58 32 9
58 33 6
58 34 9
58 35 6
58 36 1
58 37 8
58 41 8
58 42 2
58 43 8
58 45 5
58 46 3
58 47 8
58 48 10
58 49 7
58 50 8
58 52 4
58 53 5
58 54 6
58 55 5
58 56 5
58 57 5
59 0 3
59 1 7
59 4 7
59 5 10
59 6 9
59 9 7
59 10 5
59 11 4
59 12 3
59 14 6
59 16 2
59 17 3
59 18 3
59 20 6
59 21 4
59 23 7
59 26 8
59 29 7
59 33 4
59 34 9
59 36 6
59 37 5
59 38 8
59 39 1
59 40 9
59 41 5
59 43 5
59 44 6
59 46 7
59 47 5
59 50 1
59 51 9
59 53 9
59 54 8
59 55 5
59 56 9
59 58 8
